&BANDS
prefix = 'neon',
outdir = './tmp/',
filband = 'neon.bands.dat',
lsym = .true.
&end
