&CONTROL
  calculation = 'bands'
  restart_mode = 'from_scratch'
  outdir = './tmp'
  pseudo_dir = './PSEUDO'
  prefix = 'LiB2'
  tstress = .true.
  tprnfor = .true.
/
&SYSTEM
  ibrav = 4
  celldm(1) = 5.6185
  celldm(3) = 1.164
  nat = 3
  ntyp = 2
  ecutwfc = 80
  occupations = 'fixed', nbnd=9
/
&ELECTRONS
  conv_thr = 1.0e-6
/
ATOMIC_SPECIES
  Li  6.94  Li_ONCV_PBE_sr.upf
  B  10.81  B_ONCV_PBE_sr.upf
ATOMIC_POSITIONS crystal
  Li   0.00   0.00   0.00
  B   1/3   2/3   1/2
  B   2/3   1/3   1/2
K_POINTS crystal_b
  6
gG 40
M 40
K 40
gG 40
A 40
L 40
