
&CONTROL
  calculation = 'scf'
  restart_mode = 'from_scratch'
  outdir = './tmp'
  pseudo_dir = './PSEUDO'
  prefix = 'AlO'
  tstress = .true.
  tprnfor = .true.
/
&SYSTEM
  ibrav = 2
  celldm(1) = 6.576
  nat = 2
  ntyp = 2
  ecutwfc = 80
  occupations = 'tetrahedra'
/
&ELECTRONS
  conv_thr = 1.0e-6
/
ATOMIC_SPECIES
  Al  26.982  Al_ONCV_PBE_sr.upf
  O  15.999  O_ONCV_PBE_sr.upf
ATOMIC_POSITIONS crystal
  Al   0.00   0.00   0.00
  O   0.50   0.50   0.50
K_POINTS automatic
  12 12 12 0 0 0
