&BANDS
prefix = 'AlO',
outdir = './tmp/',
filband = 'AlO.bands.dat',
lsym = .true.
&end
