&CONTROL
  calculation = 'scf'
  restart_mode = 'from_scratch'
  outdir = './tmp'
  pseudo_dir = './PSEUDO'
  prefix = 'AlO'
  tstress = .true.
  tprnfor = .true.
/
&SYSTEM
  ibrav = 1
  celldm(1) = 8.453
  nat = 8
  ntyp = 2
  ecutwfc = 60
  occupations = 'tetrahedra'
/
&ELECTRONS
  conv_thr = 1e-03
  mixing_beta = 0.4
/
ATOMIC_SPECIES
  Al  26.982  Al_ONCV_PBE_sr.upf
  O  15.999  O_ONCV_PBE_sr.upf
ATOMIC_POSITIONS crystal
  Al   0.00   0.00   0.00
  Al   0.00   0.50   0.50
  Al   0.50   0.00   0.50
  Al   0.50   0.50   0.00
  O   0.50   0.50   0.50
  O   0.50   0.00   0.00
  O   0.00   0.50   0.00
  O   0.00   0.00   0.50
K_POINTS automatic
  2 2 2 0 0 0
