&CONTROL
  calculation = 'bands'
  restart_mode = 'from_scratch'
  outdir = './tmp'
  pseudo_dir = './PSEUDO'
  prefix = 'AlO'
  tstress = .true.
  tprnfor = .true.
/
&SYSTEM
  ibrav = 2
  celldm(1) = 8.453
  nat = 2
  ntyp = 2
  ecutwfc = 80
  occupations = 'fixed', nbnd=7
/
&ELECTRONS
  conv_thr = 1.0e-6
/
ATOMIC_SPECIES
  Al  26.982  Al_ONCV_PBE_sr.upf
  O  15.999  O_ONCV_PBE_sr.upf
ATOMIC_POSITIONS crystal
  Al   0.00   0.00   0.00
  O   0.50   0.50   0.50
K_POINTS crystal_b
  9
  gG 40
  X 40
  W 40
  K 40
  gG 40
  L 40
  U 40
  W 40
  L 40
