&CONTROL
  calculation = 'scf'
  restart_mode = 'from_scratch'
  outdir = './tmp'
  pseudo_dir = './PSEUDO'
  prefix = 'cubicm'
/
&SYSTEM
  ibrav = 2
  celldm(1) = 10.26
  nat = 2
  ntyp = 1
  ecutwfc = 40 
  occupations = 'tetrahedra_opt'
/
&ELECTRONS
  conv_thr = 1.0e-6
/
ATOMIC_SPECIES
  Si  28.76  Si.LDA.upf
ATOMIC_POSITIONS 
Si   0.10   0.00   0.00
Si   0.25   0.25   0.25
K_POINTS automatic
4 4 4  0 0 0
